c File: instances/30_0.10_3.col
c
c Description: Random graph of size 30 vertices and P(0.1) of edges between any two vertices.
p col 30 435
e 1 11
e 1 15
e 2 8
e 2 9
e 2 10
e 2 21
e 2 28
e 2 29
e 3 4
e 3 14
e 3 19
e 4 9
e 4 11
e 4 27
e 5 29
e 6 23
e 7 10
e 7 11
e 7 23
e 7 25
e 7 30
e 8 15
e 8 23
e 8 24
e 8 25
e 8 28
e 9 12
e 9 17
e 9 25
e 10 12
e 10 20
e 11 14
e 11 17
e 13 17
e 13 23
e 14 18
e 14 24
e 14 29
e 15 29
e 16 20
e 17 27
e 17 30
e 18 23
e 19 23
e 22 27
e 23 28
e 24 25
e 25 28
e 25 29